218 219 193 194 195 196 197 184 181 180 179 182 183 185 186 188 187 178 177 176 540 538 539 537 536 484 485 486 487 535 534 488 489 532 533 231 230 229 228 227 189 190 192 191 226 225 232 233 531 530 234 235 236 237 240 239 238 246 247 245 244 243 242 241 248 249 250 251 252 254 253 255 256 257 300 258 259 260 261 262 263 264 266 265 299 298 297 296 295 294 291 292 293 270 267 271 268 269 272 273 274 275 276 277 278 279 282 285 284 283 286 287 281 280 288 289 290 334 335 336 337 338 339 333 332 331 330 340 341 343 344 345 346 347 348 349 350 351 352 415 416 414 413 417 418 419 420 421 422 423 427 426 424 425 382 386 387 388 389 390 392 391 393 394 397 398 399 400 401 402 403 404 405 406 407 408 409 385 383 384 410 411 412 356 355 353 354 357 358 359 360 361 362 363 364 365 342 366 367 368 369 370 372 371 396 395 375 376 377 378 379 380 381 431 428 429 430 432 433 434 435 436 437 438 454 455 456 457 458 459 460 463 462 461 500 499 452 453 439 443 444 445 442 446 447 448 449 440 441 450 451 501 498 502 503 504 505 307 308 309 310 311 312 313 316 314 315 374 373 322 323 325 326 327 328 329 324 321 320 319 317 318 305 306 304 303 301 302 508 507 506 509 510 511 512 513 514 515 516 517 520 521 522 523 526 527 528 529 490 491 492 493 525 524 494 495 518 519 497 496 464 465 466 467 468 469 470 471 472 473 474 570 569 568 20 19 18 17 571 572 573 0 1 2 3 4 5 6 7 8 9 10 11 16 15 14 13 12 23 22 21 24 25 26 27 28 29 31 30 32 36 37 38 40 41 39 42 43 44 47 48 46 45 555 556 557 35 33 34 558 559 560 561 562 563 564 565 566 567 475 482 483 481 476 480 479 477 478 548 549 550 551 101 102 100 552 553 554 99 98 96 95 97 94 93 92 91 50 84 51 52 49 54 53 55 56 83 82 85 86 87 90 89 88 77 78 62 79 80 81 57 58 59 60 61 63 64 76 75 74 73 123 71 72 65 66 67 68 70 69 124 125 126 127 128 129 130 137 138 139 140 141 151 150 149 152 148 147 146 142 143 144 145 153 154 155 156 159 157 158 136 135 134 133 132 131 113 112 114 115 116 117 122 121 120 119 118 106 105 104 103 547 546 545 544 543 541 542 107 110 111 109 108 173 174 175 172 170 171 169 168 161 160 162 163 167 166 164 165 201 200 199 198 202 204 203 208 207 206 205 209 210 211 212 213 214 215 216 217 223 224 222 221 220